c Hard 3-SAT instance at phase transition ratio 4.36 (50 variables, 218 clauses)
p cnf 50 218
-40 35 -46 0
22 25 -41 0
45 14 -49 0
41 26 5 0
26 48 20 0
30 -16 11 0
39 30 17 0
-40 -37 50 0
-40 -4 -44 0
13 29 -48 0
40 -22 -28 0
-36 47 42 0
12 34 50 0
38 -30 2 0
47 23 -48 0
5 46 -9 0
6 13 29 0
-36 10 28 0
3 -28 19 0
-23 25 5 0
-17 -46 14 0
-36 17 -11 0
40 13 49 0
46 -31 -40 0
-39 13 42 0
21 -50 -26 0
29 -38 25 0
-18 49 -48 0
-45 1 -22 0
-39 25 9 0
-13 -41 -29 0
46 14 23 0
7 44 10 0
-42 -36 -32 0
6 42 47 0
-2 12 13 0
-46 41 29 0
49 -21 2 0
-11 -6 46 0
-13 -11 44 0
-26 37 -39 0
-15 44 -27 0
13 -5 42 0
2 -1 44 0
8 42 26 0
10 -45 -1 0
-3 50 -43 0
49 4 -24 0
12 1 -32 0
28 13 6 0
11 27 15 0
-33 12 28 0
49 20 -7 0
46 -32 24 0
-38 22 -45 0
4 26 45 0
1 42 3 0
6 -21 39 0
14 6 30 0
-48 -24 3 0
-27 11 -9 0
22 -5 24 0
31 18 -35 0
-17 -10 47 0
-46 45 -11 0
-23 -8 20 0
40 34 -37 0
13 12 46 0
34 -43 -4 0
-21 -19 3 0
42 35 -49 0
-21 4 9 0
37 22 11 0
-29 5 -38 0
-20 14 -34 0
-29 -46 -38 0
-5 17 -22 0
-34 -17 -7 0
-27 -9 -33 0
23 43 -28 0
25 47 -40 0
-37 16 50 0
48 4 40 0
2 37 45 0
22 -16 -20 0
20 -40 -26 0
35 -40 -26 0
-29 -49 41 0
12 26 -18 0
12 -5 -1 0
-41 -19 -37 0
4 50 -1 0
-30 19 29 0
-47 21 44 0
16 41 -31 0
47 18 20 0
-20 26 35 0
-28 -3 10 0
25 22 7 0
-15 -24 -17 0
-22 7 32 0
8 -14 45 0
-28 38 42 0
3 2 -9 0
36 -32 34 0
-21 33 9 0
18 -21 35 0
29 -19 -8 0
49 -46 18 0
15 -10 -47 0
47 -41 -18 0
-34 -27 17 0
18 32 20 0
45 25 8 0
12 21 -33 0
30 -9 28 0
-37 9 33 0
40 -21 32 0
49 -20 50 0
25 48 -36 0
23 21 -35 0
15 50 -41 0
27 15 -9 0
-14 10 -44 0
-26 43 50 0
-2 -11 -34 0
-4 41 10 0
32 13 -46 0
-11 15 14 0
12 -37 -32 0
-20 8 -37 0
31 27 21 0
-31 -20 40 0
-27 -46 -47 0
-47 17 -7 0
29 27 -7 0
-8 40 14 0
50 -45 29 0
-36 6 21 0
-1 9 -7 0
23 -41 17 0
-36 12 17 0
20 2 -48 0
23 36 -41 0
21 -13 -5 0
8 35 7 0
9 -11 -21 0
14 -49 44 0
15 -40 21 0
31 21 6 0
46 29 6 0
8 -41 -36 0
-29 -36 30 0
-14 21 15 0
-49 2 -31 0
-10 -20 -28 0
6 -46 -9 0
15 45 11 0
44 -16 -18 0
-50 18 21 0
31 -2 -40 0
7 -17 19 0
29 18 -41 0
-14 34 13 0
8 -16 41 0
22 12 45 0
29 -36 -32 0
-7 28 -30 0
24 -33 -1 0
4 -25 15 0
-35 -17 21 0
-33 -49 -38 0
-5 -35 47 0
9 25 -22 0
15 -44 -29 0
39 -20 25 0
22 -39 10 0
-20 13 22 0
-30 28 50 0
16 -14 -42 0
24 -15 9 0
5 -28 -14 0
4 -1 2 0
42 28 -9 0
38 22 9 0
21 48 -19 0
49 -24 23 0
44 40 23 0
-46 -9 40 0
42 -16 7 0
-22 -28 37 0
-14 -49 -50 0
31 -3 23 0
-17 -19 -10 0
44 -6 -38 0
13 -45 28 0
26 3 -33 0
3 -48 -12 0
14 -2 44 0
34 -43 11 0
-22 -50 -8 0
-34 -45 -43 0
-18 -5 46 0
6 28 21 0
21 36 33 0
-29 -33 26 0
-5 3 -31 0
-9 13 49 0
22 41 -39 0
-12 -9 -2 0
-40 -32 -50 0
27 -5 -43 0
-10 21 47 0
12 41 24 0
11 48 45 0
-7 2 -18 0
49 31 -48 0
-9 -7 2 0
